unknown
(model
; cardinality of BoundSet is 4
(declare-sort BoundSet 0)
; rep: @uc_BoundSet_0
; rep: @uc_BoundSet_1
; rep: @uc_BoundSet_2
; rep: @uc_BoundSet_3
; cardinality of UnboundSet is 1
(declare-sort UnboundSet 0)
(declare-fun groundTerm_5 () UnboundSet)
(define-fun IsWearing ((BOUND_VARIABLE_485 BoundSet) (BOUND_VARIABLE_486 BoundSet)) Bool true)
(define-fun IsSuspendedInAir ((BOUND_VARIABLE_489 BoundSet)) Bool true)
(define-fun IsOnSwing ((BOUND_VARIABLE_489 BoundSet)) Bool true)
(define-fun IsInBlackHat ((BOUND_VARIABLE_489 BoundSet)) Bool false)
(define-fun IsSwingingWithChildren ((BOUND_VARIABLE_489 BoundSet)) Bool false)
)
sat
(model
; cardinality of BoundSet is 1
(declare-sort BoundSet 0)
; rep: @uc_BoundSet_0
; cardinality of UnboundSet is 1
(declare-sort UnboundSet 0)
(declare-fun groundTerm_11 () UnboundSet)
(define-fun IsWearing ((BOUND_VARIABLE_557 BoundSet) (BOUND_VARIABLE_558 BoundSet)) Bool true)
(define-fun IsSuspendedInAir ((BOUND_VARIABLE_561 BoundSet)) Bool true)
(define-fun IsOnSwing ((BOUND_VARIABLE_561 BoundSet)) Bool true)
(define-fun IsInBlackHat ((BOUND_VARIABLE_561 BoundSet)) Bool true)
(define-fun IsSwingingWithChildren ((BOUND_VARIABLE_561 BoundSet)) Bool false)
)
